p tw 63 111
5 8
5 17
2 13
2 24
2 3
4 17
4 9
4 24
10 11
42 52
42 57
42 50
24 63
37 51
37 60
37 47
37 50
25 27
52 54
14 25
14 29
14 21
14 27
20 22
46 54
57 60
29 62
1 28
6 17
6 28
6 18
6 22
6 63
60 62
21 24
21 62
33 54
33 62
33 35
33 42
33 53
28 30
38 47
9 30
9 27
9 22
53 60
53 54
13 27
13 18
13 26
13 30
41 58
41 53
41 63
41 43
45 56
17 20
32 33
32 43
34 48
34 50
34 58
34 55
34 51
44 54
44 48
12 30
12 28
12 22
54 58
49 52
7 14
39 51
39 49
3 13
3 20
35 55
35 61
35 38
48 54
18 29
18 61
16 18
16 27
31 59
31 50
11 24
11 61
11 21
11 18
43 47
43 60
43 52
43 44
43 55
43 61
40 53
40 58
26 28
23 30
8 11
8 19
8 21
58 60
58 63
36 40
47 56
47 52
47 59
15 24
